sat
(
  (define-fun C5_VM4 () Int
    1)
  (define-fun MemProv3 () Int
    7500)
  (define-fun C4_VM3 () Int
    0)
  (define-fun C5_VM3 () Int
    1)
  (define-fun C3_VM4 () Int
    0)
  (define-fun PriceProv3 () Int
    252)
  (define-fun MemProv5 () Int
    1700)
  (define-fun ProcProv3 () Int
    4)
  (define-fun StorageProv1 () Int
    2000)
  (define-fun ProcProv5 () Int
    1)
  (define-fun C4_VM1 () Int
    0)
  (define-fun MemProv4 () Int
    7500)
  (define-fun C5_VM1 () Int
    0)
  (define-fun StorageProv6 () Int
    4000)
  (define-fun ProcProv6 () Int
    8)
  (define-fun C3_VM5 () Int
    0)
  (define-fun C3_VM3 () Int
    0)
  (define-fun C5_VM2 () Int
    0)
  (define-fun C1_VM2 () Int
    0)
  (define-fun ProcProv1 () Int
    4)
  (define-fun C3_VM1 () Int
    0)
  (define-fun C3_VM6 () Int
    1)
  (define-fun C2_VM5 () Int
    0)
  (define-fun C2_VM1 () Int
    0)
  (define-fun ProcProv4 () Int
    4)
  (define-fun MemProv2 () Int
    68400)
  (define-fun C4_VM2 () Int
    1)
  (define-fun C2_VM3 () Int
    1)
  (define-fun C4_VM4 () Int
    0)
  (define-fun StorageProv4 () Int
    2000)
  (define-fun VM4Type () Int
    26)
  (define-fun PriceProv1 () Int
    252)
  (define-fun StorageProv2 () Int
    2000)
  (define-fun VM5Type () Int
    38)
  (define-fun PriceProv5 () Int
    58)
  (define-fun VM2Type () Int
    22)
  (define-fun MemProv1 () Int
    7500)
  (define-fun C2_VM2 () Int
    0)
  (define-fun C1_VM5 () Int
    0)
  (define-fun VM3Type () Int
    26)
  (define-fun PriceProv4 () Int
    252)
  (define-fun C2_VM6 () Int
    0)
  (define-fun C1_VM3 () Int
    0)
  (define-fun C1_VM6 () Int
    0)
  (define-fun C3_VM2 () Int
    0)
  (define-fun VM1Type () Int
    27)
  (define-fun C2_VM4 () Int
    1)
  (define-fun StorageProv3 () Int
    2000)
  (define-fun StorageProv5 () Int
    1000)
  (define-fun VM6Type () Int
    21)
  (define-fun C5_VM6 () Int
    1)
  (define-fun C4_VM5 () Int
    0)
  (define-fun C5_VM5 () Int
    1)
  (define-fun ProcProv2 () Int
    8)
  (define-fun MemProv6 () Int
    7000)
  (define-fun C1_VM4 () Int
    0)
  (define-fun PriceProv2 () Int
    1288)
  (define-fun PriceProv6 () Int
    632)
  (define-fun C4_VM6 () Int
    0)
  (define-fun C1_VM1 () Int
    1)
)
(objectives
 ( 422)
 ((+ 0 PriceProv1 PriceProv2 PriceProv3 PriceProv4 PriceProv5 PriceProv6) 2734)
)
(:added-eqs                   208478685
 :arith-eq-adapter            10620
 :arith-bound-propagations-lp 71323
 :arith-conflicts             421
 :arith-diseq                 37648591
 :arith-fixed-eqs             4397868
 :arith-lower                 67681490
 :arith-make-feasible         9548179
 :arith-max-columns           147
 :arith-max-rows              20
 :arith-upper                 59163628
 :binary-propagations         352506695
 :conflicts                   9400250
 :decisions                   10404710
 :del-clause                  9489357
 :final-checks                37
 :max-memory                  420.72
 :memory                      306.08
 :minimized-lits              2728821079
 :mk-bool-var                 23078
 :mk-clause                   9490792
 :mk-clause-binary            4842
 :num-allocs                  14600873908610.00
 :num-checks                  38
 :pb-conflicts                69130
 :pb-predicates               494
 :pb-propagations             34449012
 :pb-resolves                 68971
 :propagations                586216234
 :restarts                    2791
 :rlimit-count                2991042940
 :solve-eqs-elim-vars         1
 :solve-eqs-steps             10
 :time                        977.22
 :total-time                  616.41)
